\ Model Roadef challenge model with x and z .......
\ LP format - for model browsing. Use MPS format to capture full model detail.
Minimize
  0 y[1,0] + 0 y[1,1] + 0 risk_s_t[1,0] + 0 risk_s_t[1,1] + 0.5 obj1
   + 0.5 obj2
Subject To
 R0: x[0,0] = 1
 R1: x[1,0] + x[1,1] + x[1,2] = 1
 R2: x[2,0] + x[2,1] = 1
 R3: x[0,1] = 0
 R4: x[0,2] = 0
 R5: x[2,2] = 0
 R6: 3 x[0,0] <= 3
 R7: x[1,0] <= 3
 R8: 2 x[1,1] <= 3
 R9: 3 x[1,2] <= 3
 R10: x[2,0] <= 3
 R11: 2 x[2,1] <= 3
 R12: x[0,0] <= 1
 R13: x[1,0] <= 3
 R14: 2 x[1,1] <= 3
 R15: 3 x[1,2] <= 3
 R16: x[2,0] <= 2
 R17: 2 x[2,1] <= 2
 R18: - 3 x[0,0] + z[0,0,0] + z[0,0,1] + z[0,0,2] = 0
 R19: - x[1,0] + z[1,0,0] = 0
 R20: - x[1,1] + z[1,1,0] = 0
 R21: - x[1,2] + z[1,2,0] = 0
 R22: - x[2,0] + z[2,0,0] = 0
 R23: - x[2,1] + z[2,1,0] = 0
 R24: z[1,0,0] + z[2,0,0] <= 1
 R25: z[1,1,0] + z[2,1,0] <= 1
 R26: 31 z[0,0,0] + 14 z[1,0,0] + 5 z[2,0,0] >= 10
 R27: 14 z[1,1,0] + 5 z[2,1,0] >= 0
 R28: 8 z[0,0,2] + 14 z[1,2,0] >= 6
 R29: 31 z[0,0,0] + 14 z[1,0,0] + 5 z[2,0,0] <= 49
 R30: 14 z[1,1,0] + 5 z[2,1,0] <= 23
 R31: 8 z[0,0,2] + 14 z[1,2,0] <= 15
 R32: - 7 z[0,0,0] - 8 z[1,0,0] - 2 z[2,0,0] + risk_s_t[0,0] = 0
 R33: - 4 z[0,0,1] - 5 z[1,1,0] - 6 z[2,1,0] + risk_s_t[0,1] = 0
 R34: - 2 z[0,0,2] - 6 z[1,2,0] + risk_s_t[0,2] = 0
 R35: - 20 z[0,0,2] - 8 z[1,2,0] + risk_s_t[1,2] = 0
 R36: - risk_s_t[0,0] + risk_bar_t[0] = 0
 R37: - risk_s_t[0,1] + risk_bar_t[1] = 0
 R38: - 0.5 risk_s_t[0,2] - 0.5 risk_s_t[1,2] + risk_bar_t[2] = 0
 R39: y[0,0] >= 0.5
 R40: y[0,1] >= 0.5
 R41: y[0,2] + y[1,2] >= 1
 R42: y[0,0] <= 1.5
 R43: y[0,1] <= 1.5
 R44: y[0,2] + y[1,2] <= 2
 R45: 10 y[0,2] - 10 y[1,2] + risk_s_t[0,2] - risk_s_t[1,2] >= -10
 R46: - 10 y[0,2] + 10 y[1,2] - risk_s_t[0,2] + risk_s_t[1,2] >= -10
 R47: - 10 y[0,0] - risk_s_t[0,0] + q_t[0] >= -10
 R48: - 10 y[0,1] - risk_s_t[0,1] + q_t[1] >= -10
 R49: - 10 y[0,2] - risk_s_t[0,2] + q_t[2] >= -10
 R50: - 10 y[1,2] - risk_s_t[1,2] + q_t[2] >= -10
 R51: excess[0] >= 0
 R52: excess[1] >= 0
 R53: excess[2] >= 0
 R54: risk_bar_t[0] - q_t[0] + excess[0] >= 0
 R55: risk_bar_t[1] - q_t[1] + excess[1] >= 0
 R56: risk_bar_t[2] - q_t[2] + excess[2] >= 0
 R57: - 0.3333333333333333 risk_bar_t[0] - 0.3333333333333333 risk_bar_t[1]
   - 0.3333333333333333 risk_bar_t[2] + obj1 = 0
 R58: - 0.3333333333333333 excess[0] - 0.3333333333333333 excess[1]
   - 0.3333333333333333 excess[2] + obj2 = 0
Bounds
Binaries
 x[0,0] x[0,1] x[0,2] x[1,0] x[1,1] x[1,2] x[2,0] x[2,1] x[2,2] z[0,0,0]
 z[0,0,1] z[0,0,2] z[1,0,0] z[1,1,0] z[1,2,0] z[2,0,0] z[2,1,0] y[0,0]
 y[0,1] y[0,2] y[1,0] y[1,1] y[1,2]
End
